c File: flat50_3_0.col
c
c SOURCE: Joseph Culberson (joe@cs.ualberta.ca)
c DESCRIPTION: Quasi-random coloring problem
c              generated with flatness = 0
c                             probability = 0.139
c                             known coloring = 3
c                             random seed = 1054
c              Creation Date:  Tue Jun  9 12:00:04 1998
c Maximum degree = 8 Minimum degree = 0
c p edge 50 115
c cnf created by edge2cnf
p cnf 150 545
-1 -2 0
-1 -3 0
-2 -3 0
1 2 3 0
-4 -5 0
-4 -6 0
-5 -6 0
4 5 6 0
-7 -8 0
-7 -9 0
-8 -9 0
7 8 9 0
-10 -11 0
-10 -12 0
-11 -12 0
10 11 12 0
-13 -14 0
-13 -15 0
-14 -15 0
13 14 15 0
-16 -17 0
-16 -18 0
-17 -18 0
16 17 18 0
-19 -20 0
-19 -21 0
-20 -21 0
19 20 21 0
-22 -23 0
-22 -24 0
-23 -24 0
22 23 24 0
-25 -26 0
-25 -27 0
-26 -27 0
25 26 27 0
-28 -29 0
-28 -30 0
-29 -30 0
28 29 30 0
-31 -32 0
-31 -33 0
-32 -33 0
31 32 33 0
-34 -35 0
-34 -36 0
-35 -36 0
34 35 36 0
-37 -38 0
-37 -39 0
-38 -39 0
37 38 39 0
-40 -41 0
-40 -42 0
-41 -42 0
40 41 42 0
-43 -44 0
-43 -45 0
-44 -45 0
43 44 45 0
-46 -47 0
-46 -48 0
-47 -48 0
46 47 48 0
-49 -50 0
-49 -51 0
-50 -51 0
49 50 51 0
-52 -53 0
-52 -54 0
-53 -54 0
52 53 54 0
-55 -56 0
-55 -57 0
-56 -57 0
55 56 57 0
-58 -59 0
-58 -60 0
-59 -60 0
58 59 60 0
-61 -62 0
-61 -63 0
-62 -63 0
61 62 63 0
-64 -65 0
-64 -66 0
-65 -66 0
64 65 66 0
-67 -68 0
-67 -69 0
-68 -69 0
67 68 69 0
-70 -71 0
-70 -72 0
-71 -72 0
70 71 72 0
-73 -74 0
-73 -75 0
-74 -75 0
73 74 75 0
-76 -77 0
-76 -78 0
-77 -78 0
76 77 78 0
-79 -80 0
-79 -81 0
-80 -81 0
79 80 81 0
-82 -83 0
-82 -84 0
-83 -84 0
82 83 84 0
-85 -86 0
-85 -87 0
-86 -87 0
85 86 87 0
-88 -89 0
-88 -90 0
-89 -90 0
88 89 90 0
-91 -92 0
-91 -93 0
-92 -93 0
91 92 93 0
-94 -95 0
-94 -96 0
-95 -96 0
94 95 96 0
-97 -98 0
-97 -99 0
-98 -99 0
97 98 99 0
-100 -101 0
-100 -102 0
-101 -102 0
100 101 102 0
-103 -104 0
-103 -105 0
-104 -105 0
103 104 105 0
-106 -107 0
-106 -108 0
-107 -108 0
106 107 108 0
-109 -110 0
-109 -111 0
-110 -111 0
109 110 111 0
-112 -113 0
-112 -114 0
-113 -114 0
112 113 114 0
-115 -116 0
-115 -117 0
-116 -117 0
115 116 117 0
-118 -119 0
-118 -120 0
-119 -120 0
118 119 120 0
-121 -122 0
-121 -123 0
-122 -123 0
121 122 123 0
-124 -125 0
-124 -126 0
-125 -126 0
124 125 126 0
-127 -128 0
-127 -129 0
-128 -129 0
127 128 129 0
-130 -131 0
-130 -132 0
-131 -132 0
130 131 132 0
-133 -134 0
-133 -135 0
-134 -135 0
133 134 135 0
-136 -137 0
-136 -138 0
-137 -138 0
136 137 138 0
-139 -140 0
-139 -141 0
-140 -141 0
139 140 141 0
-142 -143 0
-142 -144 0
-143 -144 0
142 143 144 0
-145 -146 0
-145 -147 0
-146 -147 0
145 146 147 0
-148 -149 0
-148 -150 0
-149 -150 0
148 149 150 0
-52 -1 0
-53 -2 0
-54 -3 0
-55 -1 0
-56 -2 0
-57 -3 0
-82 -1 0
-83 -2 0
-84 -3 0
-88 -1 0
-89 -2 0
-90 -3 0
-124 -1 0
-125 -2 0
-126 -3 0
-133 -1 0
-134 -2 0
-135 -3 0
-145 -1 0
-146 -2 0
-147 -3 0
-61 -4 0
-62 -5 0
-63 -6 0
-130 -4 0
-131 -5 0
-132 -6 0
-136 -4 0
-137 -5 0
-138 -6 0
-145 -4 0
-146 -5 0
-147 -6 0
-64 -7 0
-65 -8 0
-66 -9 0
-76 -7 0
-77 -8 0
-78 -9 0
-112 -7 0
-113 -8 0
-114 -9 0
-115 -7 0
-116 -8 0
-117 -9 0
-55 -10 0
-56 -11 0
-57 -12 0
-64 -10 0
-65 -11 0
-66 -12 0
-100 -10 0
-101 -11 0
-102 -12 0
-103 -10 0
-104 -11 0
-105 -12 0
-115 -10 0
-116 -11 0
-117 -12 0
-121 -10 0
-122 -11 0
-123 -12 0
-64 -13 0
-65 -14 0
-66 -15 0
-73 -13 0
-74 -14 0
-75 -15 0
-82 -13 0
-83 -14 0
-84 -15 0
-127 -13 0
-128 -14 0
-129 -15 0
-130 -13 0
-131 -14 0
-132 -15 0
-58 -16 0
-59 -17 0
-60 -18 0
-91 -16 0
-92 -17 0
-93 -18 0
-109 -16 0
-110 -17 0
-111 -18 0
-130 -16 0
-131 -17 0
-132 -18 0
-70 -19 0
-71 -20 0
-72 -21 0
-94 -19 0
-95 -20 0
-96 -21 0
-127 -19 0
-128 -20 0
-129 -21 0
-52 -22 0
-53 -23 0
-54 -24 0
-67 -22 0
-68 -23 0
-69 -24 0
-85 -22 0
-86 -23 0
-87 -24 0
-124 -22 0
-125 -23 0
-126 -24 0
-139 -22 0
-140 -23 0
-141 -24 0
-58 -25 0
-59 -26 0
-60 -27 0
-91 -25 0
-92 -26 0
-93 -27 0
-106 -25 0
-107 -26 0
-108 -27 0
-67 -28 0
-68 -29 0
-69 -30 0
-82 -28 0
-83 -29 0
-84 -30 0
-94 -28 0
-95 -29 0
-96 -30 0
-97 -28 0
-98 -29 0
-99 -30 0
-145 -28 0
-146 -29 0
-147 -30 0
-58 -31 0
-59 -32 0
-60 -33 0
-67 -31 0
-68 -32 0
-69 -33 0
-88 -31 0
-89 -32 0
-90 -33 0
-118 -31 0
-119 -32 0
-120 -33 0
-136 -31 0
-137 -32 0
-138 -33 0
-142 -31 0
-143 -32 0
-144 -33 0
-70 -34 0
-71 -35 0
-72 -36 0
-79 -34 0
-80 -35 0
-81 -36 0
-109 -34 0
-110 -35 0
-111 -36 0
-112 -34 0
-113 -35 0
-114 -36 0
-115 -34 0
-116 -35 0
-117 -36 0
-133 -34 0
-134 -35 0
-135 -36 0
-82 -40 0
-83 -41 0
-84 -42 0
-106 -40 0
-107 -41 0
-108 -42 0
-133 -40 0
-134 -41 0
-135 -42 0
-136 -40 0
-137 -41 0
-138 -42 0
-127 -43 0
-128 -44 0
-129 -45 0
-148 -43 0
-149 -44 0
-150 -45 0
-52 -46 0
-53 -47 0
-54 -48 0
-61 -46 0
-62 -47 0
-63 -48 0
-64 -46 0
-65 -47 0
-66 -48 0
-70 -46 0
-71 -47 0
-72 -48 0
-115 -46 0
-116 -47 0
-117 -48 0
-118 -46 0
-119 -47 0
-120 -48 0
-127 -46 0
-128 -47 0
-129 -48 0
-142 -46 0
-143 -47 0
-144 -48 0
-55 -49 0
-56 -50 0
-57 -51 0
-61 -49 0
-62 -50 0
-63 -51 0
-85 -49 0
-86 -50 0
-87 -51 0
-94 -49 0
-95 -50 0
-96 -51 0
-118 -49 0
-119 -50 0
-120 -51 0
-103 -52 0
-104 -53 0
-105 -54 0
-106 -52 0
-107 -53 0
-108 -54 0
-115 -55 0
-116 -56 0
-117 -57 0
-133 -55 0
-134 -56 0
-135 -57 0
-106 -61 0
-107 -62 0
-108 -63 0
-121 -61 0
-122 -62 0
-123 -63 0
-127 -61 0
-128 -62 0
-129 -63 0
-136 -61 0
-137 -62 0
-138 -63 0
-106 -64 0
-107 -65 0
-108 -66 0
-118 -64 0
-119 -65 0
-120 -66 0
-127 -64 0
-128 -65 0
-129 -66 0
-139 -64 0
-140 -65 0
-141 -66 0
-109 -67 0
-110 -68 0
-111 -69 0
-115 -67 0
-116 -68 0
-117 -69 0
-118 -67 0
-119 -68 0
-120 -69 0
-118 -70 0
-119 -71 0
-120 -72 0
-121 -70 0
-122 -71 0
-123 -72 0
-142 -70 0
-143 -71 0
-144 -72 0
-148 -70 0
-149 -71 0
-150 -72 0
-103 -73 0
-104 -74 0
-105 -75 0
-115 -73 0
-116 -74 0
-117 -75 0
-148 -76 0
-149 -77 0
-150 -78 0
-121 -82 0
-122 -83 0
-123 -84 0
-139 -82 0
-140 -83 0
-141 -84 0
-148 -82 0
-149 -83 0
-150 -84 0
-103 -85 0
-104 -86 0
-105 -87 0
-127 -85 0
-128 -86 0
-129 -87 0
-136 -85 0
-137 -86 0
-138 -87 0
-103 -88 0
-104 -89 0
-105 -90 0
-127 -88 0
-128 -89 0
-129 -90 0
-112 -91 0
-113 -92 0
-114 -93 0
-130 -91 0
-131 -92 0
-132 -93 0
-148 -94 0
-149 -95 0
-150 -96 0
-121 -97 0
-122 -98 0
-123 -99 0
-130 -97 0
-131 -98 0
-132 -99 0
-109 -100 0
-110 -101 0
-111 -102 0
-115 -100 0
-116 -101 0
-117 -102 0
-142 -100 0
-143 -101 0
-144 -102 0
